letting initialStacks = [11, 48, 32, 18, 33, 8, 22, 4, 36, 14, 35, 26, 5, 50, 40, 12, 9, 47, 24, 51, 49, 19, 31, 21, 25, 43, 15, 10, 39, 27, 16, 3, 20, 7, 28, 6, 42, 30, 45, 38, 34, 29, 23, 44, 41, 17, 1, 37, 46, 2, 13]
